c colouring generated by benchmark framework
p edge 87 406
v 1 7
v 2 7
v 3 2
v 4 3
v 5 1
v 6 10
v 7 2
v 8 3
v 9 0
v 10 0
v 11 1
v 12 1
v 13 0
v 14 4
v 15 1
v 16 3
v 17 2
v 18 2
v 19 4
v 20 8
v 21 6
v 22 0
v 23 9
v 24 9
v 25 0
v 26 8
v 27 5
v 28 3
v 29 4
v 30 0
v 31 6
v 32 2
v 33 1
v 34 0
v 35 3
v 36 0
v 37 8
v 38 8
v 39 8
v 40 7
v 41 6
v 42 8
v 43 3
v 44 4
v 45 0
v 46 10
v 47 3
v 48 6
v 49 0
v 50 10
v 51 9
v 52 3
v 53 0
v 54 8
v 55 8
v 56 8
v 57 2
v 58 9
v 59 7
v 60 6
v 61 2
v 62 7
v 63 2
v 64 8
v 65 6
v 66 1
v 67 0
v 68 2
v 69 6
v 70 1
v 71 1
v 72 8
v 73 1
v 74 9
v 75 9
v 76 2
v 77 1
v 78 4
v 79 2
v 80 8
v 81 9
v 82 0
v 83 5
v 84 3
v 85 1
v 86 4
v 87 6
